44
150
120	1
118	1
116	1
115	1
114	1
109	1
108	1
106	1
104	1
101	1
97	1
96	1
92	1
91	1
90	1
89	1
86	1
83	1
79	1
78	1
76	1
72	1
68	1
67	1
64	1
62	1
61	2
60	1
57	1
54	2
52	1
50	1
49	1
48	1
45	1
41	1
40	1
35	1
34	2
29	1
28	1
25	2
23	2
20	2
